/* Objective function */
max: +4 G1S1 + 3.5G1S2 +3.5G1S3 +3.5 G1S4 +3 G1S5 + 1 G1S6 + 2.5 G1S7 +1 G1S8 +3 G1S9 +2 G1S10 +2 G1S11 +1 G1S12 
+4 G2S1 +3.5 G2S2 +3.5 G2S3 +3.5 G2S4 +3 G2S5 +1 G2S6 +2.5 G2S7 +1 G2S8 +3 G2S9 +2 G2S10+2 G2S11 +1 G2S12 
+4 G3S1 +3.5 G3S2 +3.5 G3S3 +3.5 G3S4 +3 G3S5 +1 G3S6 +2.5 G3S7 +1 G3S8 +3 G3S9 +2 G3S10 +2 G3S11 +1 G3S12 
+4 G4S1 +3.5 G4S2 +3.5 G4S3 +3.5 G4S4 +3 G4S5 +1 G4S6 +2.5 G4S7 +1 G4S8 +3 G4S9 +2 G4S10 +2 G4S11 +1 G4S12

+3 G1S1 + 3 G1S2 +3 G1S3 +1 G1S4 +3 G1S5 + 3 G1S6 + 2 G1S7 +1 G1S8 +3 G1S9 +3 G1S10 +2 G1S11 +1 G1S12 
+3 G2S1 +3 G2S2 +3 G2S3 +1 G2S4 +3 G2S5 +3 G2S6 +2 G2S7 +1 G2S8 +3 G2S9 +3 G2S10 +2 G2S11 +1 G2S12 
+3 G3S1 +3 G3S2 +3 G3S3 +1 G3S4 +3 G3S5 +3 G3S6 +2 G3S7 +1 G3S8 +3 G3S9 +3 G3S10 +2 G3S11 +1 G3S12 
+3 G4S1 +3 G4S2 +3 G4S3 +1 G4S4 +3 G4S5 +3 G4S6 +2 G4S7 +1 G4S8 +3 G4S9 +3 G4S10 +2 G4S11 +1 G4S12

+3 G1S1 + 2 G1S2 +3 G1S3 +3 G1S4 +3 G1S5 + 1 G1S6 + 2 G1S7 +2 G1S8 +1 G1S9 +3 G1S10 +2 G1S11 +1 G1S12 
+3 G2S1 +2 G2S2 +3 G2S3 +3 G2S4 +3 G2S5 +1 G2S6 +2 G2S7 +2 G2S8 +1 G2S9 +3 G2S10 +2 G2S11 +1 G2S12 
+3 G3S1 +2 G3S2 +3 G3S3 +3 G3S4 +3 G3S5 +1 G3S6 +2 G3S7 +2 G3S8 +1 G3S9 +3 G3S10 +2 G3S11 +1 G3S12 
+3 G4S1 +2 G4S2 +3 G4S3 +3 G4S4 +3 G4S5 +1 G4S6 +2 G4S7 +2 G4S8 +1 G4S9 +3 G4S10 +2 G4S11 +1 G4S12;

/* Constraints */
G1Students: +G1S1 +G1S2 +G1S3 +G1S4 +G1S5 +G1S6 +G1S7 +G1S8 +G1S9 +G1S10 +G1S11 +G1S12 = 3;
G2Students: +G2S1 +G2S2 +G2S3 +G2S4 +G2S5 +G2S6 +G2S7 +G2S8 +G2S9 +G2S10 +G2S11 +G2S12 = 3;
G3Students: +G3S1 +G3S2 +G3S3 +G3S4 +G3S5 +G3S6 +G3S7 +G3S8 +G3S9 +G3S10 +G3S11 +G3S12 = 3;
G4Students: +G4S1 +G4S2 +G4S3 +G4S4 +G4S5 +G4S6 +G4S7 +G4S8 +G4S9 +G4S10 +G4S11 +G4S12 = 3;

S1: +G1S1 +G2S1 +G3S1 +G4S1 = 1;
S2: +G1S2 +G2S2 +G3S2 +G4S2 = 1;
S3: +G1S3 +G2S3 +G3S3 +G4S3 = 1;
S4: +G1S4 +G2S4 +G3S4 +G4S4 = 1;
S5: +G1S5 +G2S5 +G3S5 +G4S5 = 1;
S6: +G1S6 +G2S6 +G3S6 +G4S6 = 1;
S7: +G1S7 +G2S7 +G3S7 +G4S7 = 1;
S8: +G1S8 +G2S8 +G3S8 +G4S8 = 1;
S9: +G1S9 +G2S9 +G3S9 +G4S9 = 1;
S10: +G1S10 +G2S8 +G3S8 +G4S10 = 1;
S11: +G1S11 +G2S11 +G3S11 +G4S11 = 1;
S12: +G1S12 +G2S12 +G3S12 +G4S12 = 1;

G1GPA: +4 G1S1 +3.5 G1S2 +3.5 G1S3 +3.5 G1S4 +3 G1S5 +1 G1S6 +2.5 G1S7 +1 G1S8 +3 G1S9 +2 G1S10 +2 G1S11 +1 G1S12 >= 2.5;
G2GPA: +4 G2S1 +3.5 G2S2 +3.5 G2S3 +3.5 G2S4 +3 G2S5 +1 G2S6 +2.5 G2S7 +1 G2S8 +3 G2S9 +2 G2S10 +2 G2S11 +1 G2S12 >= 2.5;
G3GPA: +4 G3S1 +3.5 G3S2 +3.5 G3S3 +3.5 G3S4 +3 G3S5 +1 G3S6 +2.5 G3S7 +1 G3S8 +3 G3S9 +2 G3S10 +2 G3S11 +1 G3S12 >= 2.5;
G4GPA: +4 G4S1 +3.5 G4S2 +3.5 G4S3 +3.5 G4S4 +3 G4S5 +1 G4S6 +2.5 G4S7 +1 G4S8 +3 G4S9 +2 G4S10 +2 G4S11 +1 G4S12 >= 2.5;

G1Age: +3 G1S1 +3 G1S2 +3 G1S3 +1 G1S4 +3 G1S5 +3 G1S6 +2 G1S7 +1 G1S8 +3 G1S9 +3 G1S10 +2 G1S11 +1 G1S12 >= 2.33;
G2Age: +3 G2S1 +3 G2S2 +3 G2S3 +1 G2S4 +3 G2S5 +3 G2S6 +2 G2S7 +1 G2S8 +3 G2S9 +3 G2S10 +2 G2S11 +1 G2S12 >= 2.33;
G3Age: +3 G3S1 +3 G3S2 +3 G3S3 +1 G3S4 +3 G3S5 +3 G3S6 +2 G3S7 +1 G3S8 +3 G3S9 +3 G3S10 +2 G3S11 +1 G3S12 >= 2.33;
G4Age: +3 G4S1 +3 G4S2 +3 G4S3 +1 G4S4 +3 G4S5 +3 G4S6 +2 G4S7 +1 G4S8 +3 G4S9 +3 G4S10 +2 G4S11 +1 G4S12 >= 2.33;

G1Courses: +3 G1S1 +2 G1S2 +3 G1S3 +3 G1S4 +3 G1S5 +1 G1S6 +2 G1S7 +2 G1S8 +1 G1S9 +3 G1S10 +2 G1S11 +1 G1S12 >= 2.16;
G2Courses: +3 G2S1 +2 G2S2 +3 G2S3 +3 G2S4 +3 G2S5 +1 G2S6 +2 G2S7 +2 G2S8 +1 G2S9 +3 G2S10 +2 G2S11 +1 G2S12 >= 2.16;
G3Courses: +3 G3S1 +2 G3S2 +3 G3S3 +3 G3S4 +3 G3S5 +1 G3S6 +2 G3S7 +2 G3S8 +1 G3S9 +3 G3S10 +2 G3S11 +1 G3S12 >= 2.16;
G4Courses: +3 G4S1 +2 G4S2 +3 G4S3 +3 G4S4 +3 G4S5 +1 G4S6 +2 G4S7 +2 G4S8 +1 G4S9 +3 G4S10 +2 G4S11 +1 G4S12 >= 2.16;

G1S1 >0;
G1S2 >0;
G1S3 >0;
G1S4 >0;
G1S5 >0;
G1S6>0;
G1S7>0;
G1S8>0;
G1S9>0;
G1S10>0;
G1S11>0;
G1S12>0;
G2S1>0;
G2S2>0;
G2S3>0;
G2S4>0;
G2S5>0;
G2S6>0;
G2S7>0;
G2S8>0;
G2S9>0;
G2S10>0;
G2S11>0;
G2S12>0;
G3S1>0;
G3S2>0;
G3S3>0;
G3S4>0;
G3S5>0;
G3S6>0;
G3S7>0;
G3S8>0;
G3S9>0;
G3S10>0; 
G3S11>0;
G3S12>0;
G4S1>0;
G4S2>0;
G4S3>0;
G4S4>0;
G4S5>0;
G4S6>0;
G4S7>0;
G4S8>0;
G4S9>0;
G4S10>0;
G4S11>0;
G4S12>0;

/* Integer definitions */
int
G1S1,G1S2,G1S3,G1S4,G1S5,G1S6,G1S7,G1S8,G1S9,G1S10,G1S11,G1S12,G2S1,G2S2,G2S3,G2S4,
G2S5,G2S6,G2S7,G2S8,G2S9,G2S10,G2S11,G2S12,G3S1,G3S2,G3S3,G3S4,G3S5,G3S6,G3S7,G3S8,
G3S9,G3S10,G3S11,G3S12,G4S1,G4S2,G4S3,G4S4,G4S5,G4S6,G4S7,G4S8,G4S9,G4S10,G4S11,G4
S12;